language Essence 1.3

letting Golfers be new type of size 4
letting __named_Golfers be new type enum
        {_Golfers_1, _Golfers_2, _Golfers_3, _Golfers_4}
letting sched be
        mset(partition({_Golfers_1, _Golfers_2}, {_Golfers_3, _Golfers_4}),
             partition({_Golfers_1, _Golfers_2}, {_Golfers_3, _Golfers_4}),
             partition({_Golfers_1, _Golfers_2}, {_Golfers_3, _Golfers_4}))
